
data;

param	Produtividade	:=
TRIGO	0.2
ARROZ	0.3
MILHO	0.4	;

param	Lucro	:=
TRIGO	10.8
ARROZ	4.2
MILHO	2.03	;

param AreaTotal := 200000;
param PesoMaximo := 60000;

param DemandaSitio	:=
TRIGO	400
ARROZ	800
MILHO	10000	;